(set-logic QF_UF)
(declare-fun A0 () Bool)
(declare-fun A1 () Bool)
(declare-fun A2 () Bool)
(declare-fun A3 () Bool)
(declare-fun A5 () Bool)
(declare-fun A6 () Bool)
(declare-fun A7 () Bool)
(declare-fun A8 () Bool)
(declare-fun A9 () Bool)
(declare-fun A10 () Bool)
(declare-fun A11 () Bool)
(declare-fun A12 () Bool)
(declare-fun A13 () Bool)
(declare-fun A14 () Bool)
(declare-fun A15 () Bool)
(declare-fun A17 () Bool)
(declare-fun A18 () Bool)
(declare-fun A19 () Bool)
(declare-fun A20 () Bool)
(declare-fun A21 () Bool)
(declare-fun A22 () Bool)
(declare-fun A23 () Bool)
(declare-fun A24 () Bool)
(assert (let ((.def_0 (not A18))) (let ((.def_1 (and .def_0 A7))) (let ((.def_2 (not A8))) (let ((.def_3 (and .def_2 A0))) (let ((.def_4 (not .def_3))) (let ((.def_5 (and .def_4 .def_1))) (let ((.def_6 (not .def_5))) (let ((.def_7 (and A11 A22))) (let ((.def_8 (and A12 A18))) (let ((.def_9 (not .def_8))) (let ((.def_10 (and .def_9 .def_7))) (let ((.def_11 (and .def_10 .def_6))) (let ((.def_12 (not .def_11))) (let ((.def_13 (or A7 A23))) (let ((.def_14 (not A1))) (let ((.def_15 (not A15))) (let ((.def_16 (and .def_15 .def_14))) (let ((.def_17 (and .def_16 .def_13))) (let ((.def_18 (not .def_17))) (let ((.def_19 (not A14))) (let ((.def_20 (= .def_19 A21))) (let ((.def_21 (not A9))) (let ((.def_22 (or .def_21 A15))) (let ((.def_23 (not .def_22))) (let ((.def_24 (= .def_23 .def_20))) (let ((.def_25 (or .def_24 .def_18))) (let ((.def_26 (or .def_25 .def_12))) (let ((.def_27 (not .def_26))) (let ((.def_28 (and A24 A11))) (let ((.def_29 (not .def_28))) (let ((.def_30 (not A13))) (let ((.def_31 (or .def_30 A23))) (let ((.def_32 (not .def_31))) (let ((.def_33 (and .def_32 .def_29))) (let ((.def_34 (not .def_33))) (let ((.def_35 (not A22))) (let ((.def_36 (not A3))) (let ((.def_37 (and .def_36 .def_35))) (let ((.def_38 (not A10))) (let ((.def_39 (and .def_38 A3))) (let ((.def_40 (not .def_39))) (let ((.def_41 (or .def_40 .def_37))) (let ((.def_42 (or .def_41 .def_34))) (let ((.def_43 (not A2))) (let ((.def_44 (and .def_30 .def_43))) (let ((.def_45 (not A11))) (let ((.def_46 (not A23))) (let ((.def_47 (or .def_46 .def_45))) (let ((.def_48 (not .def_47))) (let ((.def_49 (or .def_48 .def_44))) (let ((.def_50 (or .def_38 A22))) (let ((.def_51 (not .def_50))) (let ((.def_52 (not A0))) (let ((.def_53 (or .def_52 A15))) (let ((.def_54 (not .def_53))) (let ((.def_55 (or .def_54 .def_51))) (let ((.def_56 (= .def_55 .def_49))) (let ((.def_57 (or .def_56 .def_42))) (let ((.def_58 (and .def_57 .def_27))) (let ((.def_59 (not .def_58))) (let ((.def_60 (and A21 A22))) (let ((.def_61 (and A10 A23))) (let ((.def_62 (not .def_61))) (let ((.def_63 (and .def_62 .def_60))) (let ((.def_64 (not .def_63))) (let ((.def_65 (or A14 .def_15))) (let ((.def_66 (= A8 .def_45))) (let ((.def_67 (not .def_66))) (let ((.def_68 (or .def_67 .def_65))) (let ((.def_69 (not .def_68))) (let ((.def_70 (or .def_69 .def_64))) (let ((.def_71 (not A6))) (let ((.def_72 (= .def_71 .def_43))) (let ((.def_73 (not .def_72))) (let ((.def_74 (or A19 .def_35))) (let ((.def_75 (not .def_74))) (let ((.def_76 (or .def_75 .def_73))) (let ((.def_77 (not .def_76))) (let ((.def_78 (and A5 .def_2))) (let ((.def_79 (not .def_78))) (let ((.def_80 (or A6 A11))) (let ((.def_81 (or .def_80 .def_79))) (let ((.def_82 (not .def_81))) (let ((.def_83 (and .def_82 .def_77))) (let ((.def_84 (not .def_83))) (let ((.def_85 (or .def_84 .def_70))) (let ((.def_86 (not A24))) (let ((.def_87 (= A22 .def_86))) (let ((.def_88 (not A17))) (let ((.def_89 (and .def_88 A12))) (let ((.def_90 (and .def_89 .def_87))) (let ((.def_91 (not .def_90))) (let ((.def_92 (or .def_14 A11))) (let ((.def_93 (not A5))) (let ((.def_94 (= .def_14 .def_93))) (let ((.def_95 (not .def_94))) (let ((.def_96 (and .def_95 .def_92))) (let ((.def_97 (and .def_96 .def_91))) (let ((.def_98 (and .def_21 .def_14))) (let ((.def_99 (or A20 .def_30))) (let ((.def_100 (not .def_99))) (let ((.def_101 (or .def_100 .def_98))) (let ((.def_102 (and A18 .def_52))) (let ((.def_103 (not .def_102))) (let ((.def_104 (and .def_35 A1))) (let ((.def_105 (not .def_104))) (let ((.def_106 (and .def_105 .def_103))) (let ((.def_107 (not .def_106))) (let ((.def_108 (or .def_107 .def_101))) (let ((.def_109 (not .def_108))) (let ((.def_110 (or .def_109 .def_97))) (let ((.def_111 (not .def_110))) (let ((.def_112 (and .def_111 .def_85))) (let ((.def_113 (not .def_112))) (let ((.def_114 (or .def_113 .def_59))) (let ((.def_115 (not .def_114))) .def_115)))))))))))))))))))))))))))))))))))))))))))))))))))))))))))))))))))))))))))))))))))))))))))))))))))))))))))))))))))))
(check-sat)
